c CNF file corresponding to a (partial) station packing problem.
p cnf 6399 229
6383 6384 6385 6386 6387 6388 6389 6390 6391 6392 6393 6394 6395 6396 6397 6398 6399 0
-6383 -6384 0
-6383 -6385 0
-6383 -6386 0
-6383 -6387 0
-6383 -6388 0
-6383 -6389 0
-6383 -6390 0
-6383 -6391 0
-6383 -6392 0
-6383 -6393 0
-6383 -6394 0
-6383 -6395 0
-6383 -6396 0
-6383 -6397 0
-6383 -6398 0
-6383 -6399 0
-6384 -6385 0
-6384 -6386 0
-6384 -6387 0
-6384 -6388 0
-6384 -6389 0
-6384 -6390 0
-6384 -6391 0
-6384 -6392 0
-6384 -6393 0
-6384 -6394 0
-6384 -6395 0
-6384 -6396 0
-6384 -6397 0
-6384 -6398 0
-6384 -6399 0
-6385 -6386 0
-6385 -6387 0
-6385 -6388 0
-6385 -6389 0
-6385 -6390 0
-6385 -6391 0
-6385 -6392 0
-6385 -6393 0
-6385 -6394 0
-6385 -6395 0
-6385 -6396 0
-6385 -6397 0
-6385 -6398 0
-6385 -6399 0
-6386 -6387 0
-6386 -6388 0
-6386 -6389 0
-6386 -6390 0
-6386 -6391 0
-6386 -6392 0
-6386 -6393 0
-6386 -6394 0
-6386 -6395 0
-6386 -6396 0
-6386 -6397 0
-6386 -6398 0
-6386 -6399 0
-6387 -6388 0
-6387 -6389 0
-6387 -6390 0
-6387 -6391 0
-6387 -6392 0
-6387 -6393 0
-6387 -6394 0
-6387 -6395 0
-6387 -6396 0
-6387 -6397 0
-6387 -6398 0
-6387 -6399 0
-6388 -6389 0
-6388 -6390 0
-6388 -6391 0
-6388 -6392 0
-6388 -6393 0
-6388 -6394 0
-6388 -6395 0
-6388 -6396 0
-6388 -6397 0
-6388 -6398 0
-6388 -6399 0
-6389 -6390 0
-6389 -6391 0
-6389 -6392 0
-6389 -6393 0
-6389 -6394 0
-6389 -6395 0
-6389 -6396 0
-6389 -6397 0
-6389 -6398 0
-6389 -6399 0
-6390 -6391 0
-6390 -6392 0
-6390 -6393 0
-6390 -6394 0
-6390 -6395 0
-6390 -6396 0
-6390 -6397 0
-6390 -6398 0
-6390 -6399 0
-6391 -6392 0
-6391 -6393 0
-6391 -6394 0
-6391 -6395 0
-6391 -6396 0
-6391 -6397 0
-6391 -6398 0
-6391 -6399 0
-6392 -6393 0
-6392 -6394 0
-6392 -6395 0
-6392 -6396 0
-6392 -6397 0
-6392 -6398 0
-6392 -6399 0
-6393 -6394 0
-6393 -6395 0
-6393 -6396 0
-6393 -6397 0
-6393 -6398 0
-6393 -6399 0
-6394 -6395 0
-6394 -6396 0
-6394 -6397 0
-6394 -6398 0
-6394 -6399 0
-6395 -6396 0
-6395 -6397 0
-6395 -6398 0
-6395 -6399 0
-6396 -6397 0
-6396 -6398 0
-6396 -6399 0
-6397 -6398 0
-6397 -6399 0
-6398 -6399 0
1 2 3 4 5 6 7 8 9 10 11 12 13 14 0
-1 -2 0
-1 -3 0
-1 -4 0
-1 -5 0
-1 -6 0
-1 -7 0
-1 -8 0
-1 -9 0
-1 -10 0
-1 -11 0
-1 -12 0
-1 -13 0
-1 -14 0
-2 -3 0
-2 -4 0
-2 -5 0
-2 -6 0
-2 -7 0
-2 -8 0
-2 -9 0
-2 -10 0
-2 -11 0
-2 -12 0
-2 -13 0
-2 -14 0
-3 -4 0
-3 -5 0
-3 -6 0
-3 -7 0
-3 -8 0
-3 -9 0
-3 -10 0
-3 -11 0
-3 -12 0
-3 -13 0
-3 -14 0
-4 -5 0
-4 -6 0
-4 -7 0
-4 -8 0
-4 -9 0
-4 -10 0
-4 -11 0
-4 -12 0
-4 -13 0
-4 -14 0
-5 -6 0
-5 -7 0
-5 -8 0
-5 -9 0
-5 -10 0
-5 -11 0
-5 -12 0
-5 -13 0
-5 -14 0
-6 -7 0
-6 -8 0
-6 -9 0
-6 -10 0
-6 -11 0
-6 -12 0
-6 -13 0
-6 -14 0
-7 -8 0
-7 -9 0
-7 -10 0
-7 -11 0
-7 -12 0
-7 -13 0
-7 -14 0
-8 -9 0
-8 -10 0
-8 -11 0
-8 -12 0
-8 -13 0
-8 -14 0
-9 -10 0
-9 -11 0
-9 -12 0
-9 -13 0
-9 -14 0
-10 -11 0
-10 -12 0
-10 -13 0
-10 -14 0
-11 -12 0
-11 -13 0
-11 -14 0
-12 -13 0
-12 -14 0
-13 -14 0
